tsp_instances/TSP50/instance89.tsp
NODE_COORD_SECTION
0 78 1
1 169 103
2 50 79
3 173 166
4 138 55
5 63 148
6 199 21
7 182 185
8 135 66
9 65 36
10 2 20
11 131 120
12 68 92
13 83 122
14 169 131
15 94 79
16 182 38
17 23 66
18 27 33
19 118 41
20 98 136
21 166 15
22 13 5
23 141 188
24 54 163
25 60 60
26 9 14
27 185 51
28 14 196
29 5 110
30 171 147
31 116 62
32 21 66
33 144 14
34 110 5
35 59 125
36 183 75
37 186 172
38 87 183
39 104 31
40 9 115
41 194 158
42 100 44
43 47 179
44 89 48
45 123 76
46 87 124
47 61 89
48 142 168
49 154 48
