tsp_instances/TSP50/instance89.opt.tour
TOUR_SECTION
1
23
27
11
19
18
33
30
41
29
44
39
25
6
36
14
47
21
12
49
24
8
38
42
4
31
15
2
37
28
17
7
22
34
50
5
9
46
32
16
13
48
3
26
10
45
43
20
40
35
-1